certificates/rado_a9_c56_N17.cnf
c Rad2 upper bound instance: x1 + 9*x2 - x3 = 56, interval [1,17]
p cnf 17 64
1 7 8 0
-1 -7 -8 0
1 8 17 0
-1 -8 -17 0
2 7 9 0
-2 -7 -9 0
1 3 6 0
-1 -3 -6 0
3 7 10 0
-3 -7 -10 0
2 4 6 0
-2 -4 -6 0
4 7 11 0
-4 -7 -11 0
3 5 6 0
-3 -5 -6 0
5 7 12 0
-5 -7 -12 0
4 6 0
-4 -6 0
6 7 13 0
-6 -7 -13 0
5 6 7 0
-5 -6 -7 0
7 14 0
-7 -14 0
6 8 0
-6 -8 0
7 8 15 0
-7 -8 -15 0
6 7 9 0
-6 -7 -9 0
7 9 16 0
-7 -9 -16 0
6 8 10 0
-6 -8 -10 0
7 10 17 0
-7 -10 -17 0
6 9 11 0
-6 -9 -11 0
1 5 12 0
-1 -5 -12 0
6 10 12 0
-6 -10 -12 0
2 5 13 0
-2 -5 -13 0
6 11 13 0
-6 -11 -13 0
3 5 14 0
-3 -5 -14 0
6 12 14 0
-6 -12 -14 0
4 5 15 0
-4 -5 -15 0
6 13 15 0
-6 -13 -15 0
5 16 0
-5 -16 0
6 14 16 0
-6 -14 -16 0
5 6 17 0
-5 -6 -17 0
6 15 17 0
-6 -15 -17 0
