certificates/rado_a9_c56_N17.drat
-15 5 -17 0
-16 -17 0
-17 0
15 -5 0
16 0
-5 0
6 0
-4 0
-8 0
-14 0
15 0
1 0
7 0
3 0
-13 0
0
